c File: instances/16_0.10_2.col
c
c Description: Random graph of size 16 vertices and P(0.1) of edges between any two vertices.
p col 16 120
e 1 6
e 1 9
e 1 14
e 2 15
e 4 6
e 6 8
e 6 16
e 8 9
e 8 11
e 9 12
e 9 13
e 15 16